NAME: renA20
TYPE: TSP
COMMENT: 20 random cities (seed : 1)
DIMENSION: 20
EDGE_WEIGHT_TYPE : EUC_2D
NODE_COORD_SECTION
1 985 588
2 847 313
3 254 904
4 434 606
5 978 748
6 569 473
7 317 263
8 562 234
9 592 262
10 596 189
11 376 332
12 310 99
13 674 959
14 298 153
15 437 302
16 205 854
17 800 6
18 363 955
19 689 820
20 75 834
EOF
